param set_len = 18;
param target = 1908171;
param values := [0] 390432 [1] 277372 [2] 208934 [3] 4779 [4] 443503 [5] 81475 [6] 164714 [7] 508908 [8] 476958 [9] 152742 [10] 58827 [11] 29658 [12] 79088 [13] 354658 [14] 251388 [15] 394565 [16] 506181 [17] 223533 ;
